num_bands = 20
num_wann  = ???

dis_win_min  = -25.00
dis_win_max  =   7.50
dis_froz_min = -25.00
dis_froz_max =  -4.00

begin projections
   C: pz
   f= 0.6666666667, 0.3333333333, 0.5: sp2
end projections

write_hr   = true
bands_plot = true

!! wannier_plot           = true
!! wannier_plot_supercell = 3 3 1

num_iter      = 1000
dis_num_iter  = 10000
search_shells = 36

begin kpoint_path
   G 1.000  0.000  0.000 M 0.500  0.000  0.000
   M 0.500  0.000  0.000 K 0.333  0.333  0.000
   K 0.333  0.333  0.000 G 0.000  0.000  0.000
end kpoint_path

begin unit_cell_cart
   2.46      0.          0.
  -1.23      2.13042249  0.
   0.        0.         15.
end unit_cell_cart

begin atoms_frac
C                0.3333333333        0.6666666667        0.0000000000
C                0.6666666667        0.3333333333        0.0000000000
end atoms_frac

mp_grid: 24 24 1

begin kpoints
  0.00000000  0.00000000  0.00000000
  0.00000000  0.04166667  0.00000000
  0.00000000  0.08333333  0.00000000
  0.00000000  0.12500000  0.00000000
  0.00000000  0.16666667  0.00000000
  0.00000000  0.20833333  0.00000000
  0.00000000  0.25000000  0.00000000
  0.00000000  0.29166667  0.00000000
  0.00000000  0.33333333  0.00000000
  0.00000000  0.37500000  0.00000000
  0.00000000  0.41666667  0.00000000
  0.00000000  0.45833333  0.00000000
  0.00000000  0.50000000  0.00000000
  0.00000000  0.54166667  0.00000000
  0.00000000  0.58333333  0.00000000
  0.00000000  0.62500000  0.00000000
  0.00000000  0.66666667  0.00000000
  0.00000000  0.70833333  0.00000000
  0.00000000  0.75000000  0.00000000
  0.00000000  0.79166667  0.00000000
  0.00000000  0.83333333  0.00000000
  0.00000000  0.87500000  0.00000000
  0.00000000  0.91666667  0.00000000
  0.00000000  0.95833333  0.00000000
  0.04166667  0.00000000  0.00000000
  0.04166667  0.04166667  0.00000000
  0.04166667  0.08333333  0.00000000
  0.04166667  0.12500000  0.00000000
  0.04166667  0.16666667  0.00000000
  0.04166667  0.20833333  0.00000000
  0.04166667  0.25000000  0.00000000
  0.04166667  0.29166667  0.00000000
  0.04166667  0.33333333  0.00000000
  0.04166667  0.37500000  0.00000000
  0.04166667  0.41666667  0.00000000
  0.04166667  0.45833333  0.00000000
  0.04166667  0.50000000  0.00000000
  0.04166667  0.54166667  0.00000000
  0.04166667  0.58333333  0.00000000
  0.04166667  0.62500000  0.00000000
  0.04166667  0.66666667  0.00000000
  0.04166667  0.70833333  0.00000000
  0.04166667  0.75000000  0.00000000
  0.04166667  0.79166667  0.00000000
  0.04166667  0.83333333  0.00000000
  0.04166667  0.87500000  0.00000000
  0.04166667  0.91666667  0.00000000
  0.04166667  0.95833333  0.00000000
  0.08333333  0.00000000  0.00000000
  0.08333333  0.04166667  0.00000000
  0.08333333  0.08333333  0.00000000
  0.08333333  0.12500000  0.00000000
  0.08333333  0.16666667  0.00000000
  0.08333333  0.20833333  0.00000000
  0.08333333  0.25000000  0.00000000
  0.08333333  0.29166667  0.00000000
  0.08333333  0.33333333  0.00000000
  0.08333333  0.37500000  0.00000000
  0.08333333  0.41666667  0.00000000
  0.08333333  0.45833333  0.00000000
  0.08333333  0.50000000  0.00000000
  0.08333333  0.54166667  0.00000000
  0.08333333  0.58333333  0.00000000
  0.08333333  0.62500000  0.00000000
  0.08333333  0.66666667  0.00000000
  0.08333333  0.70833333  0.00000000
  0.08333333  0.75000000  0.00000000
  0.08333333  0.79166667  0.00000000
  0.08333333  0.83333333  0.00000000
  0.08333333  0.87500000  0.00000000
  0.08333333  0.91666667  0.00000000
  0.08333333  0.95833333  0.00000000
  0.12500000  0.00000000  0.00000000
  0.12500000  0.04166667  0.00000000
  0.12500000  0.08333333  0.00000000
  0.12500000  0.12500000  0.00000000
  0.12500000  0.16666667  0.00000000
  0.12500000  0.20833333  0.00000000
  0.12500000  0.25000000  0.00000000
  0.12500000  0.29166667  0.00000000
  0.12500000  0.33333333  0.00000000
  0.12500000  0.37500000  0.00000000
  0.12500000  0.41666667  0.00000000
  0.12500000  0.45833333  0.00000000
  0.12500000  0.50000000  0.00000000
  0.12500000  0.54166667  0.00000000
  0.12500000  0.58333333  0.00000000
  0.12500000  0.62500000  0.00000000
  0.12500000  0.66666667  0.00000000
  0.12500000  0.70833333  0.00000000
  0.12500000  0.75000000  0.00000000
  0.12500000  0.79166667  0.00000000
  0.12500000  0.83333333  0.00000000
  0.12500000  0.87500000  0.00000000
  0.12500000  0.91666667  0.00000000
  0.12500000  0.95833333  0.00000000
  0.16666667  0.00000000  0.00000000
  0.16666667  0.04166667  0.00000000
  0.16666667  0.08333333  0.00000000
  0.16666667  0.12500000  0.00000000
  0.16666667  0.16666667  0.00000000
  0.16666667  0.20833333  0.00000000
  0.16666667  0.25000000  0.00000000
  0.16666667  0.29166667  0.00000000
  0.16666667  0.33333333  0.00000000
  0.16666667  0.37500000  0.00000000
  0.16666667  0.41666667  0.00000000
  0.16666667  0.45833333  0.00000000
  0.16666667  0.50000000  0.00000000
  0.16666667  0.54166667  0.00000000
  0.16666667  0.58333333  0.00000000
  0.16666667  0.62500000  0.00000000
  0.16666667  0.66666667  0.00000000
  0.16666667  0.70833333  0.00000000
  0.16666667  0.75000000  0.00000000
  0.16666667  0.79166667  0.00000000
  0.16666667  0.83333333  0.00000000
  0.16666667  0.87500000  0.00000000
  0.16666667  0.91666667  0.00000000
  0.16666667  0.95833333  0.00000000
  0.20833333  0.00000000  0.00000000
  0.20833333  0.04166667  0.00000000
  0.20833333  0.08333333  0.00000000
  0.20833333  0.12500000  0.00000000
  0.20833333  0.16666667  0.00000000
  0.20833333  0.20833333  0.00000000
  0.20833333  0.25000000  0.00000000
  0.20833333  0.29166667  0.00000000
  0.20833333  0.33333333  0.00000000
  0.20833333  0.37500000  0.00000000
  0.20833333  0.41666667  0.00000000
  0.20833333  0.45833333  0.00000000
  0.20833333  0.50000000  0.00000000
  0.20833333  0.54166667  0.00000000
  0.20833333  0.58333333  0.00000000
  0.20833333  0.62500000  0.00000000
  0.20833333  0.66666667  0.00000000
  0.20833333  0.70833333  0.00000000
  0.20833333  0.75000000  0.00000000
  0.20833333  0.79166667  0.00000000
  0.20833333  0.83333333  0.00000000
  0.20833333  0.87500000  0.00000000
  0.20833333  0.91666667  0.00000000
  0.20833333  0.95833333  0.00000000
  0.25000000  0.00000000  0.00000000
  0.25000000  0.04166667  0.00000000
  0.25000000  0.08333333  0.00000000
  0.25000000  0.12500000  0.00000000
  0.25000000  0.16666667  0.00000000
  0.25000000  0.20833333  0.00000000
  0.25000000  0.25000000  0.00000000
  0.25000000  0.29166667  0.00000000
  0.25000000  0.33333333  0.00000000
  0.25000000  0.37500000  0.00000000
  0.25000000  0.41666667  0.00000000
  0.25000000  0.45833333  0.00000000
  0.25000000  0.50000000  0.00000000
  0.25000000  0.54166667  0.00000000
  0.25000000  0.58333333  0.00000000
  0.25000000  0.62500000  0.00000000
  0.25000000  0.66666667  0.00000000
  0.25000000  0.70833333  0.00000000
  0.25000000  0.75000000  0.00000000
  0.25000000  0.79166667  0.00000000
  0.25000000  0.83333333  0.00000000
  0.25000000  0.87500000  0.00000000
  0.25000000  0.91666667  0.00000000
  0.25000000  0.95833333  0.00000000
  0.29166667  0.00000000  0.00000000
  0.29166667  0.04166667  0.00000000
  0.29166667  0.08333333  0.00000000
  0.29166667  0.12500000  0.00000000
  0.29166667  0.16666667  0.00000000
  0.29166667  0.20833333  0.00000000
  0.29166667  0.25000000  0.00000000
  0.29166667  0.29166667  0.00000000
  0.29166667  0.33333333  0.00000000
  0.29166667  0.37500000  0.00000000
  0.29166667  0.41666667  0.00000000
  0.29166667  0.45833333  0.00000000
  0.29166667  0.50000000  0.00000000
  0.29166667  0.54166667  0.00000000
  0.29166667  0.58333333  0.00000000
  0.29166667  0.62500000  0.00000000
  0.29166667  0.66666667  0.00000000
  0.29166667  0.70833333  0.00000000
  0.29166667  0.75000000  0.00000000
  0.29166667  0.79166667  0.00000000
  0.29166667  0.83333333  0.00000000
  0.29166667  0.87500000  0.00000000
  0.29166667  0.91666667  0.00000000
  0.29166667  0.95833333  0.00000000
  0.33333333  0.00000000  0.00000000
  0.33333333  0.04166667  0.00000000
  0.33333333  0.08333333  0.00000000
  0.33333333  0.12500000  0.00000000
  0.33333333  0.16666667  0.00000000
  0.33333333  0.20833333  0.00000000
  0.33333333  0.25000000  0.00000000
  0.33333333  0.29166667  0.00000000
  0.33333333  0.33333333  0.00000000
  0.33333333  0.37500000  0.00000000
  0.33333333  0.41666667  0.00000000
  0.33333333  0.45833333  0.00000000
  0.33333333  0.50000000  0.00000000
  0.33333333  0.54166667  0.00000000
  0.33333333  0.58333333  0.00000000
  0.33333333  0.62500000  0.00000000
  0.33333333  0.66666667  0.00000000
  0.33333333  0.70833333  0.00000000
  0.33333333  0.75000000  0.00000000
  0.33333333  0.79166667  0.00000000
  0.33333333  0.83333333  0.00000000
  0.33333333  0.87500000  0.00000000
  0.33333333  0.91666667  0.00000000
  0.33333333  0.95833333  0.00000000
  0.37500000  0.00000000  0.00000000
  0.37500000  0.04166667  0.00000000
  0.37500000  0.08333333  0.00000000
  0.37500000  0.12500000  0.00000000
  0.37500000  0.16666667  0.00000000
  0.37500000  0.20833333  0.00000000
  0.37500000  0.25000000  0.00000000
  0.37500000  0.29166667  0.00000000
  0.37500000  0.33333333  0.00000000
  0.37500000  0.37500000  0.00000000
  0.37500000  0.41666667  0.00000000
  0.37500000  0.45833333  0.00000000
  0.37500000  0.50000000  0.00000000
  0.37500000  0.54166667  0.00000000
  0.37500000  0.58333333  0.00000000
  0.37500000  0.62500000  0.00000000
  0.37500000  0.66666667  0.00000000
  0.37500000  0.70833333  0.00000000
  0.37500000  0.75000000  0.00000000
  0.37500000  0.79166667  0.00000000
  0.37500000  0.83333333  0.00000000
  0.37500000  0.87500000  0.00000000
  0.37500000  0.91666667  0.00000000
  0.37500000  0.95833333  0.00000000
  0.41666667  0.00000000  0.00000000
  0.41666667  0.04166667  0.00000000
  0.41666667  0.08333333  0.00000000
  0.41666667  0.12500000  0.00000000
  0.41666667  0.16666667  0.00000000
  0.41666667  0.20833333  0.00000000
  0.41666667  0.25000000  0.00000000
  0.41666667  0.29166667  0.00000000
  0.41666667  0.33333333  0.00000000
  0.41666667  0.37500000  0.00000000
  0.41666667  0.41666667  0.00000000
  0.41666667  0.45833333  0.00000000
  0.41666667  0.50000000  0.00000000
  0.41666667  0.54166667  0.00000000
  0.41666667  0.58333333  0.00000000
  0.41666667  0.62500000  0.00000000
  0.41666667  0.66666667  0.00000000
  0.41666667  0.70833333  0.00000000
  0.41666667  0.75000000  0.00000000
  0.41666667  0.79166667  0.00000000
  0.41666667  0.83333333  0.00000000
  0.41666667  0.87500000  0.00000000
  0.41666667  0.91666667  0.00000000
  0.41666667  0.95833333  0.00000000
  0.45833333  0.00000000  0.00000000
  0.45833333  0.04166667  0.00000000
  0.45833333  0.08333333  0.00000000
  0.45833333  0.12500000  0.00000000
  0.45833333  0.16666667  0.00000000
  0.45833333  0.20833333  0.00000000
  0.45833333  0.25000000  0.00000000
  0.45833333  0.29166667  0.00000000
  0.45833333  0.33333333  0.00000000
  0.45833333  0.37500000  0.00000000
  0.45833333  0.41666667  0.00000000
  0.45833333  0.45833333  0.00000000
  0.45833333  0.50000000  0.00000000
  0.45833333  0.54166667  0.00000000
  0.45833333  0.58333333  0.00000000
  0.45833333  0.62500000  0.00000000
  0.45833333  0.66666667  0.00000000
  0.45833333  0.70833333  0.00000000
  0.45833333  0.75000000  0.00000000
  0.45833333  0.79166667  0.00000000
  0.45833333  0.83333333  0.00000000
  0.45833333  0.87500000  0.00000000
  0.45833333  0.91666667  0.00000000
  0.45833333  0.95833333  0.00000000
  0.50000000  0.00000000  0.00000000
  0.50000000  0.04166667  0.00000000
  0.50000000  0.08333333  0.00000000
  0.50000000  0.12500000  0.00000000
  0.50000000  0.16666667  0.00000000
  0.50000000  0.20833333  0.00000000
  0.50000000  0.25000000  0.00000000
  0.50000000  0.29166667  0.00000000
  0.50000000  0.33333333  0.00000000
  0.50000000  0.37500000  0.00000000
  0.50000000  0.41666667  0.00000000
  0.50000000  0.45833333  0.00000000
  0.50000000  0.50000000  0.00000000
  0.50000000  0.54166667  0.00000000
  0.50000000  0.58333333  0.00000000
  0.50000000  0.62500000  0.00000000
  0.50000000  0.66666667  0.00000000
  0.50000000  0.70833333  0.00000000
  0.50000000  0.75000000  0.00000000
  0.50000000  0.79166667  0.00000000
  0.50000000  0.83333333  0.00000000
  0.50000000  0.87500000  0.00000000
  0.50000000  0.91666667  0.00000000
  0.50000000  0.95833333  0.00000000
  0.54166667  0.00000000  0.00000000
  0.54166667  0.04166667  0.00000000
  0.54166667  0.08333333  0.00000000
  0.54166667  0.12500000  0.00000000
  0.54166667  0.16666667  0.00000000
  0.54166667  0.20833333  0.00000000
  0.54166667  0.25000000  0.00000000
  0.54166667  0.29166667  0.00000000
  0.54166667  0.33333333  0.00000000
  0.54166667  0.37500000  0.00000000
  0.54166667  0.41666667  0.00000000
  0.54166667  0.45833333  0.00000000
  0.54166667  0.50000000  0.00000000
  0.54166667  0.54166667  0.00000000
  0.54166667  0.58333333  0.00000000
  0.54166667  0.62500000  0.00000000
  0.54166667  0.66666667  0.00000000
  0.54166667  0.70833333  0.00000000
  0.54166667  0.75000000  0.00000000
  0.54166667  0.79166667  0.00000000
  0.54166667  0.83333333  0.00000000
  0.54166667  0.87500000  0.00000000
  0.54166667  0.91666667  0.00000000
  0.54166667  0.95833333  0.00000000
  0.58333333  0.00000000  0.00000000
  0.58333333  0.04166667  0.00000000
  0.58333333  0.08333333  0.00000000
  0.58333333  0.12500000  0.00000000
  0.58333333  0.16666667  0.00000000
  0.58333333  0.20833333  0.00000000
  0.58333333  0.25000000  0.00000000
  0.58333333  0.29166667  0.00000000
  0.58333333  0.33333333  0.00000000
  0.58333333  0.37500000  0.00000000
  0.58333333  0.41666667  0.00000000
  0.58333333  0.45833333  0.00000000
  0.58333333  0.50000000  0.00000000
  0.58333333  0.54166667  0.00000000
  0.58333333  0.58333333  0.00000000
  0.58333333  0.62500000  0.00000000
  0.58333333  0.66666667  0.00000000
  0.58333333  0.70833333  0.00000000
  0.58333333  0.75000000  0.00000000
  0.58333333  0.79166667  0.00000000
  0.58333333  0.83333333  0.00000000
  0.58333333  0.87500000  0.00000000
  0.58333333  0.91666667  0.00000000
  0.58333333  0.95833333  0.00000000
  0.62500000  0.00000000  0.00000000
  0.62500000  0.04166667  0.00000000
  0.62500000  0.08333333  0.00000000
  0.62500000  0.12500000  0.00000000
  0.62500000  0.16666667  0.00000000
  0.62500000  0.20833333  0.00000000
  0.62500000  0.25000000  0.00000000
  0.62500000  0.29166667  0.00000000
  0.62500000  0.33333333  0.00000000
  0.62500000  0.37500000  0.00000000
  0.62500000  0.41666667  0.00000000
  0.62500000  0.45833333  0.00000000
  0.62500000  0.50000000  0.00000000
  0.62500000  0.54166667  0.00000000
  0.62500000  0.58333333  0.00000000
  0.62500000  0.62500000  0.00000000
  0.62500000  0.66666667  0.00000000
  0.62500000  0.70833333  0.00000000
  0.62500000  0.75000000  0.00000000
  0.62500000  0.79166667  0.00000000
  0.62500000  0.83333333  0.00000000
  0.62500000  0.87500000  0.00000000
  0.62500000  0.91666667  0.00000000
  0.62500000  0.95833333  0.00000000
  0.66666667  0.00000000  0.00000000
  0.66666667  0.04166667  0.00000000
  0.66666667  0.08333333  0.00000000
  0.66666667  0.12500000  0.00000000
  0.66666667  0.16666667  0.00000000
  0.66666667  0.20833333  0.00000000
  0.66666667  0.25000000  0.00000000
  0.66666667  0.29166667  0.00000000
  0.66666667  0.33333333  0.00000000
  0.66666667  0.37500000  0.00000000
  0.66666667  0.41666667  0.00000000
  0.66666667  0.45833333  0.00000000
  0.66666667  0.50000000  0.00000000
  0.66666667  0.54166667  0.00000000
  0.66666667  0.58333333  0.00000000
  0.66666667  0.62500000  0.00000000
  0.66666667  0.66666667  0.00000000
  0.66666667  0.70833333  0.00000000
  0.66666667  0.75000000  0.00000000
  0.66666667  0.79166667  0.00000000
  0.66666667  0.83333333  0.00000000
  0.66666667  0.87500000  0.00000000
  0.66666667  0.91666667  0.00000000
  0.66666667  0.95833333  0.00000000
  0.70833333  0.00000000  0.00000000
  0.70833333  0.04166667  0.00000000
  0.70833333  0.08333333  0.00000000
  0.70833333  0.12500000  0.00000000
  0.70833333  0.16666667  0.00000000
  0.70833333  0.20833333  0.00000000
  0.70833333  0.25000000  0.00000000
  0.70833333  0.29166667  0.00000000
  0.70833333  0.33333333  0.00000000
  0.70833333  0.37500000  0.00000000
  0.70833333  0.41666667  0.00000000
  0.70833333  0.45833333  0.00000000
  0.70833333  0.50000000  0.00000000
  0.70833333  0.54166667  0.00000000
  0.70833333  0.58333333  0.00000000
  0.70833333  0.62500000  0.00000000
  0.70833333  0.66666667  0.00000000
  0.70833333  0.70833333  0.00000000
  0.70833333  0.75000000  0.00000000
  0.70833333  0.79166667  0.00000000
  0.70833333  0.83333333  0.00000000
  0.70833333  0.87500000  0.00000000
  0.70833333  0.91666667  0.00000000
  0.70833333  0.95833333  0.00000000
  0.75000000  0.00000000  0.00000000
  0.75000000  0.04166667  0.00000000
  0.75000000  0.08333333  0.00000000
  0.75000000  0.12500000  0.00000000
  0.75000000  0.16666667  0.00000000
  0.75000000  0.20833333  0.00000000
  0.75000000  0.25000000  0.00000000
  0.75000000  0.29166667  0.00000000
  0.75000000  0.33333333  0.00000000
  0.75000000  0.37500000  0.00000000
  0.75000000  0.41666667  0.00000000
  0.75000000  0.45833333  0.00000000
  0.75000000  0.50000000  0.00000000
  0.75000000  0.54166667  0.00000000
  0.75000000  0.58333333  0.00000000
  0.75000000  0.62500000  0.00000000
  0.75000000  0.66666667  0.00000000
  0.75000000  0.70833333  0.00000000
  0.75000000  0.75000000  0.00000000
  0.75000000  0.79166667  0.00000000
  0.75000000  0.83333333  0.00000000
  0.75000000  0.87500000  0.00000000
  0.75000000  0.91666667  0.00000000
  0.75000000  0.95833333  0.00000000
  0.79166667  0.00000000  0.00000000
  0.79166667  0.04166667  0.00000000
  0.79166667  0.08333333  0.00000000
  0.79166667  0.12500000  0.00000000
  0.79166667  0.16666667  0.00000000
  0.79166667  0.20833333  0.00000000
  0.79166667  0.25000000  0.00000000
  0.79166667  0.29166667  0.00000000
  0.79166667  0.33333333  0.00000000
  0.79166667  0.37500000  0.00000000
  0.79166667  0.41666667  0.00000000
  0.79166667  0.45833333  0.00000000
  0.79166667  0.50000000  0.00000000
  0.79166667  0.54166667  0.00000000
  0.79166667  0.58333333  0.00000000
  0.79166667  0.62500000  0.00000000
  0.79166667  0.66666667  0.00000000
  0.79166667  0.70833333  0.00000000
  0.79166667  0.75000000  0.00000000
  0.79166667  0.79166667  0.00000000
  0.79166667  0.83333333  0.00000000
  0.79166667  0.87500000  0.00000000
  0.79166667  0.91666667  0.00000000
  0.79166667  0.95833333  0.00000000
  0.83333333  0.00000000  0.00000000
  0.83333333  0.04166667  0.00000000
  0.83333333  0.08333333  0.00000000
  0.83333333  0.12500000  0.00000000
  0.83333333  0.16666667  0.00000000
  0.83333333  0.20833333  0.00000000
  0.83333333  0.25000000  0.00000000
  0.83333333  0.29166667  0.00000000
  0.83333333  0.33333333  0.00000000
  0.83333333  0.37500000  0.00000000
  0.83333333  0.41666667  0.00000000
  0.83333333  0.45833333  0.00000000
  0.83333333  0.50000000  0.00000000
  0.83333333  0.54166667  0.00000000
  0.83333333  0.58333333  0.00000000
  0.83333333  0.62500000  0.00000000
  0.83333333  0.66666667  0.00000000
  0.83333333  0.70833333  0.00000000
  0.83333333  0.75000000  0.00000000
  0.83333333  0.79166667  0.00000000
  0.83333333  0.83333333  0.00000000
  0.83333333  0.87500000  0.00000000
  0.83333333  0.91666667  0.00000000
  0.83333333  0.95833333  0.00000000
  0.87500000  0.00000000  0.00000000
  0.87500000  0.04166667  0.00000000
  0.87500000  0.08333333  0.00000000
  0.87500000  0.12500000  0.00000000
  0.87500000  0.16666667  0.00000000
  0.87500000  0.20833333  0.00000000
  0.87500000  0.25000000  0.00000000
  0.87500000  0.29166667  0.00000000
  0.87500000  0.33333333  0.00000000
  0.87500000  0.37500000  0.00000000
  0.87500000  0.41666667  0.00000000
  0.87500000  0.45833333  0.00000000
  0.87500000  0.50000000  0.00000000
  0.87500000  0.54166667  0.00000000
  0.87500000  0.58333333  0.00000000
  0.87500000  0.62500000  0.00000000
  0.87500000  0.66666667  0.00000000
  0.87500000  0.70833333  0.00000000
  0.87500000  0.75000000  0.00000000
  0.87500000  0.79166667  0.00000000
  0.87500000  0.83333333  0.00000000
  0.87500000  0.87500000  0.00000000
  0.87500000  0.91666667  0.00000000
  0.87500000  0.95833333  0.00000000
  0.91666667  0.00000000  0.00000000
  0.91666667  0.04166667  0.00000000
  0.91666667  0.08333333  0.00000000
  0.91666667  0.12500000  0.00000000
  0.91666667  0.16666667  0.00000000
  0.91666667  0.20833333  0.00000000
  0.91666667  0.25000000  0.00000000
  0.91666667  0.29166667  0.00000000
  0.91666667  0.33333333  0.00000000
  0.91666667  0.37500000  0.00000000
  0.91666667  0.41666667  0.00000000
  0.91666667  0.45833333  0.00000000
  0.91666667  0.50000000  0.00000000
  0.91666667  0.54166667  0.00000000
  0.91666667  0.58333333  0.00000000
  0.91666667  0.62500000  0.00000000
  0.91666667  0.66666667  0.00000000
  0.91666667  0.70833333  0.00000000
  0.91666667  0.75000000  0.00000000
  0.91666667  0.79166667  0.00000000
  0.91666667  0.83333333  0.00000000
  0.91666667  0.87500000  0.00000000
  0.91666667  0.91666667  0.00000000
  0.91666667  0.95833333  0.00000000
  0.95833333  0.00000000  0.00000000
  0.95833333  0.04166667  0.00000000
  0.95833333  0.08333333  0.00000000
  0.95833333  0.12500000  0.00000000
  0.95833333  0.16666667  0.00000000
  0.95833333  0.20833333  0.00000000
  0.95833333  0.25000000  0.00000000
  0.95833333  0.29166667  0.00000000
  0.95833333  0.33333333  0.00000000
  0.95833333  0.37500000  0.00000000
  0.95833333  0.41666667  0.00000000
  0.95833333  0.45833333  0.00000000
  0.95833333  0.50000000  0.00000000
  0.95833333  0.54166667  0.00000000
  0.95833333  0.58333333  0.00000000
  0.95833333  0.62500000  0.00000000
  0.95833333  0.66666667  0.00000000
  0.95833333  0.70833333  0.00000000
  0.95833333  0.75000000  0.00000000
  0.95833333  0.79166667  0.00000000
  0.95833333  0.83333333  0.00000000
  0.95833333  0.87500000  0.00000000
  0.95833333  0.91666667  0.00000000
  0.95833333  0.95833333  0.00000000
end kpoints

