
???

ATOMIC_SPECIES
  Ga  69.723   Ga.upf
  As  74.922   As.upf
ATOMIC_POSITIONS crystal
  Ga  0.666666666667 0.333333333333  0.0000000000
  As  0.666666666667 0.333333333333  0.3743428538
  Ga  0.333333333333 0.666666666667  0.5000000000
  As  0.333333333333 0.666666666667  0.8743428538 
K_POINTS {crystal_b}
 8
 0.000 0.000 0.500 30 !! A
 0.500 0.000 0.500 30 !! L
 0.500 0.000 0.000 30 !! M
 0.000 0.000 0.000 30 !! Gamma
 0.000 0.000 0.500 30 !! A
 0.333 0.333 0.500 30 !! H
 0.333 0.333 0.000 30 !! K
 0.000 0.000 0.000  1 !! Gamma

