&dos
   prefix  = 'C_hex'
   outdir  = 'tmp_dir'
   bz_sum  = 'smearing'
   degauss = 0.01
/

