&control
   calculation  = 'scf'
   prefix       = 'C_hex'
   pseudo_dir   = '../pseudos/'
   outdir       = 'tmp_dir'
   tprnfor      = .true.
/
&system
   ibrav = 4
   a     = 2.46
   c     = 15.0

   assume_isolated = '2D'

   nat  = NNN
   ntyp = 1

   ecutwfc = 90.0
/
&electrons
   conv_thr = 1.0e-10
/

ATOMIC_SPECIES
   C  12.0  C.nc-PBE.UPF

ATOMIC_POSITIONS (crystal)
C                <coef to b1>        <coef to b2>        0.5000000000
#...

K_POINTS {automatic}
 12 12 12 0 0 0

