&bands
   outdir  = 'tmp_dir'
   prefix  = 'C_hex'
   filband = 'bands.out'
/

